100 500 200 500 10 100
70 488
69 250
42 439
48 333
88 321
14 470
29 324
95 379
25 468
28 406
57 372
84 330
30 244
34 358
92 286
32 281
76 424
68 329
69 284
45 287
57 335
30 268
75 413
51 340
25 250
14 343
78 372
70 369
36 426
29 219
46 243
96 484
59 330
83 279
85 223
91 217
30 320
70 266
89 430
11 362
42 299
56 352
93 375
34 285
36 496
62 262
20 304
46 205
36 307
14 246
100 348
68 437
32 497
41 200
65 257
94 356
64 265
33 225
28 426
91 490
26 314
25 408
26 246
23 300
43 396
26 432
92 258
78 211
75 218
50 430
30 272
91 381
83 491
93 225
88 466
17 336
52 215
20 446
47 356
19 312
67 240
38 295
19 310
89 301
41 267
77 404
36 265
45 374
61 439
73 421
74 364
68 331
29 500
46 339
65 221
99 406
81 444
98 308
58 308
36 330
